************************************************************************
file with basedata            : j9012_.bas
initial value random generator: 372469928
************************************************************************
projects                      :  1
jobs (incl. supersource/sink ):  92
horizon                       :  538
RESOURCES
  - renewable                 :  4   R
  - nonrenewable              :  0   N
  - doubly constrained        :  0   D
************************************************************************
PROJECT INFORMATION:
pronr.  #jobs rel.date duedate tardcost  MPM-Time
    1     90      0       93       85       93
************************************************************************
PRECEDENCE RELATIONS:
jobnr.    #modes  #successors   successors
   1        1          3           2   3   4
   2        1          3          10  21  29
   3        1          2           5  72
   4        1          3           6  31  41
   5        1          3           8  12  32
   6        1          3           7   9  15
   7        1          2          16  40
   8        1          1          82
   9        1          3          13  17  51
  10        1          1          11
  11        1          3          14  25  37
  12        1          2          33  55
  13        1          3          23  45  50
  14        1          2          18  36
  15        1          2          44  47
  16        1          1          44
  17        1          3          20  22  48
  18        1          3          19  30  57
  19        1          3          28  59  61
  20        1          2          24  86
  21        1          1          51
  22        1          1          34
  23        1          2          38  64
  24        1          3          26  46  58
  25        1          2          27  49
  26        1          2          36  50
  27        1          2          53  67
  28        1          1          77
  29        1          2          35  87
  30        1          2          52  71
  31        1          1          52
  32        1          2          59  73
  33        1          1          43
  34        1          1          80
  35        1          3          43  52  67
  36        1          1          47
  37        1          2          42  65
  38        1          1          39
  39        1          1          54
  40        1          1          66
  41        1          1          68
  42        1          1          81
  43        1          1          70
  44        1          1          55
  45        1          1          85
  46        1          1          83
  47        1          1          78
  48        1          1          60
  49        1          1          77
  50        1          1          74
  51        1          2          54  73
  52        1          1          63
  53        1          1          71
  54        1          1          81
  55        1          1          56
  56        1          1          79
  57        1          1          67
  58        1          2          76  90
  59        1          2          62  84
  60        1          1          76
  61        1          1          91
  62        1          1          85
  63        1          1          75
  64        1          1          72
  65        1          1          69
  66        1          1          70
  67        1          2          68  84
  68        1          1          76
  69        1          1          81
  70        1          1          89
  71        1          2          72  74
  72        1          1          73
  73        1          2          77  82
  74        1          1          88
  75        1          1          83
  76        1          1          89
  77        1          1          79
  78        1          1          79
  79        1          1          80
  80        1          1          88
  81        1          1          83
  82        1          1          87
  83        1          2          84  88
  84        1          1          85
  85        1          1          91
  86        1          1          90
  87        1          1          91
  88        1          1          90
  89        1          1          92
  90        1          1          92
  91        1          1          92
  92        1          0        
************************************************************************
REQUESTS/DURATIONS:
jobnr. mode duration  R 1  R 2  R 3  R 4
------------------------------------------------------------------------
  1      1     0       0    0    0    0
  2      1     3      10    1    2    0
  3      1     7       8    8    0    8
  4      1     8       0    1    8    9
  5      1     6       1    0    1    0
  6      1     9       3    0    7    7
  7      1     9       1    3    2    7
  8      1     4       8    5    6    1
  9      1     8       4    0    8   10
 10      1     2       4    7    1    0
 11      1     9       1    0    5    5
 12      1     9       0    8    0    4
 13      1     3       9    8   10    0
 14      1    10       9    4    6    0
 15      1     1       2    6    7    5
 16      1     6       7    0    6    0
 17      1     3       7    1    5    9
 18      1     4       9    4    5    4
 19      1     4       8    4    2   10
 20      1     7       2    0    5   10
 21      1     6      10    6    0    7
 22      1     5       8    7    3    5
 23      1     9       0    2    4    6
 24      1     2       8    7    2    0
 25      1     1       6    0    7   10
 26      1    10       0    5    4    3
 27      1     5       8    0   10    2
 28      1     8       4    9   10    9
 29      1     3       3    6    5    9
 30      1     7       4    6    2    9
 31      1     3       4    9    5    0
 32      1     9       4    6    6    8
 33      1     8       0    4    9    1
 34      1     3       4    2    0    5
 35      1     9       4    2    3    6
 36      1    10       2    7    5    4
 37      1     9       6    8    0    1
 38      1     1       3    0    0    5
 39      1     5       0    4    1    0
 40      1     5       7    0    1    5
 41      1     6       5    7    6    1
 42      1     9       0    7   10    5
 43      1     5       8    9    7    5
 44      1     4      10    5    0   10
 45      1    10       5    0    2    0
 46      1     8       4    0    0   10
 47      1     3       5    8    0    1
 48      1     6       8    8    3    8
 49      1     6       1    0    5    6
 50      1     1       0    0    3    0
 51      1     3      10    0    6    4
 52      1     6       0    0    0    7
 53      1     1       7    4    8    7
 54      1     9       2    0    7    1
 55      1     6       0    0   10    7
 56      1     9       0    4    0    0
 57      1     5       0    3    7    4
 58      1     9       4    9    2    4
 59      1     7       1    0    1    7
 60      1    10       0    5    6    3
 61      1     7       0   10    4    5
 62      1     2       1    0    0    0
 63      1     4       0    5    2    4
 64      1     9       9    8    0    4
 65      1     2       6   10    6   10
 66      1     5       1    0    6   10
 67      1     2      10    6    8    5
 68      1    10       0    1    1    0
 69      1     8       3   10    9    0
 70      1     7       5    1    6    0
 71      1    10       1    9    5    7
 72      1    10       0    0    2    7
 73      1     1       0    2    4    9
 74      1     9       2    2    8    2
 75      1     7       4    2    0    0
 76      1     4       1    0    0    0
 77      1     3       1    4    6    2
 78      1    10       8    0    2    8
 79      1     4      10    8    1    1
 80      1     6       8    6    6    8
 81      1     3       0    6    9    8
 82      1     7       0    7    0    7
 83      1     9       8    9    4    7
 84      1     1       5    4    5    9
 85      1    10       2    3    4    6
 86      1     8       9   10   10    0
 87      1     7       8    0    0   10
 88      1     4       6    8    0    5
 89      1     5       0    4    0    3
 90      1     9       0    0    1    0
 91      1     2       0    0    8    7
 92      1     0       0    0    0    0
************************************************************************
RESOURCEAVAILABILITIES:
  R 1  R 2  R 3  R 4
   60   71   66   89
************************************************************************
